8327
40, 38, 43, 33, 10, 9, 8, 41, 19, 45, 3, 17, 21, 42, 7, 2, 30, 50, 20, 23, 31, 18, 22, 1, 32, 49, 37, 48, 24, 5, 15, 6, 4, 25, 28, 27, 13, 14, 52, 11, 51, 12, 26, 47, 29, 16, 46, 44, 34, 35, 36, 39
